<?xml version="1.0" encoding="UTF-8"?><osil xmlns="os.optimizationservices.org" xmlns:xsi="http://www.w3.org/2001/XMLSchema-instance" xsi:schemaLocation="os.optimizationservices.org http://www.optimizationservices.org/schemas/2.0/OSiL.xsd"><instanceHeader><name>enpro48pb</name></instanceHeader><instanceData><variables numberOfVariables="153"><var name="x1" lb="4.60517018598809" ub="8.00636756765025"/><var name="x2" lb="4.60517018598809" ub="8.00636756765025"/><var name="x3" lb="4.60517018598809" ub="8.00636756765025"/><var name="x4" lb="4.60517018598809" ub="8.00636756765025"/><var name="x5" lb="4.60517018598809" ub="8.00636756765025"/><var name="x6" lb="4.60517018598809" ub="8.00636756765025"/><var name="x7" lb="4.60517018598809" ub="8.00636756765025"/><var name="x8" lb="4.60517018598809" ub="8.00636756765025"/><var name="x9" lb="1.6094379124341" ub="6.90775527898214"/><var name="x10" lb="1.6094379124341" ub="6.90775527898214"/><var name="x11" lb="1.6094379124341" ub="6.90775527898214"/><var name="x12" lb="1.6094379124341" ub="6.90775527898214"/><var name="x13" lb="1.6094379124341" ub="6.90775527898214"/><var name="x14" lb="1.6094379124341" ub="6.90775527898214"/><var name="x15" lb="1.6094379124341" ub="6.90775527898214"/><var name="x16" lb="1.6094379124341" ub="6.90775527898214"/><var name="x17" lb="1.6094379124341" ub="6.84321675784456"/><var name="x18" lb="1.6094379124341" ub="6.84321675784456"/><var name="x19" lb="1.6094379124341" ub="6.84321675784456"/><var name="x20" lb="1.6094379124341" ub="6.84321675784456"/><var name="x21" lb="1.6094379124341" ub="6.84321675784456"/><var name="x22" lb="1.6094379124341" ub="6.84321675784456"/><var name="x23" lb="1.6094379124341" ub="6.84321675784456"/><var name="x24" lb="1.6094379124341" ub="6.84321675784456"/><var name="x25" lb="2.30258509299405" ub="6.84321675784456"/><var name="x26" lb="2.30258509299405" ub="6.84321675784456"/><var name="x27" lb="2.30258509299405" ub="6.84321675784456"/><var name="x28" lb="2.30258509299405" ub="6.84321675784456"/><var name="x29" lb="2.30258509299405" ub="6.84321675784456"/><var name="x30" lb="2.30258509299405" ub="6.84321675784456"/><var name="x31" lb="2.30258509299405" ub="6.84321675784456"/><var name="x32" lb="2.30258509299405" ub="6.84321675784456"/><var name="x33" lb="1.6094379124341" ub="6.62007320653036"/><var name="x34" lb="1.6094379124341" ub="6.62007320653036"/><var name="x35" lb="1.6094379124341" ub="6.62007320653036"/><var name="x36" lb="1.6094379124341" ub="6.62007320653036"/><var name="x37" lb="1.6094379124341" ub="6.62007320653036"/><var name="x38" lb="1.6094379124341" ub="6.62007320653036"/><var name="x39" lb="1.6094379124341" ub="6.62007320653036"/><var name="x40" lb="1.6094379124341" ub="6.62007320653036"/><var name="x41" ub="1.38629436111989"/><var name="x42" ub="1.38629436111989"/><var name="x43" ub="1.38629436111989"/><var name="x44" ub="1.38629436111989"/><var name="x45" ub="1.38629436111989"/><var name="x46" ub="1.38629436111989"/><var name="x47" ub="1.38629436111989"/><var name="x48" ub="1.38629436111989"/><var name="x49" ub="1.38629436111989"/><var name="x50" ub="1.38629436111989"/><var name="x51" ub="1.38629436111989"/><var name="x52" ub="1.38629436111989"/><var name="x53" ub="1.38629436111989"/><var name="x54" ub="1.38629436111989"/><var name="x55" ub="1.38629436111989"/><var name="x56" ub="1.38629436111989"/><var name="x58" lb="4.60517018598809" ub="9.61580548008435"/><var name="x59" lb="-INF" ub="100"/><var name="x60" lb="-INF" ub="100"/><var name="x61" lb="-INF" ub="100"/><var name="x62" lb="-INF" ub="100"/><var name="b63" type="B" ub="1"/><var name="b64" type="B" ub="1"/><var name="b65" type="B" ub="1"/><var name="b66" type="B" ub="1"/><var name="b67" type="B" ub="1"/><var name="b68" type="B" ub="1"/><var name="b69" type="B" ub="1"/><var name="b70" type="B" ub="1"/><var name="b71" type="B" ub="1"/><var name="b72" type="B" ub="1"/><var name="b73" type="B" ub="1"/><var name="b74" type="B" ub="1"/><var name="b75" type="B" ub="1"/><var name="b76" type="B" ub="1"/><var name="b77" type="B" ub="1"/><var name="b78" type="B" ub="1"/><var name="b79" type="B" ub="1"/><var name="b80" type="B" ub="1"/><var name="b81" type="B" ub="1"/><var name="b82" type="B" ub="1"/><var name="b83" type="B" ub="1"/><var name="b84" type="B" ub="1"/><var name="b85" type="B" ub="1"/><var name="b86" type="B" ub="1"/><var name="b87" type="B" ub="1"/><var name="b88" type="B" ub="1"/><var name="b89" type="B" ub="1"/><var name="b90" type="B" ub="1"/><var name="b91" type="B" ub="1"/><var name="b92" type="B" ub="1"/><var name="b93" type="B" ub="1"/><var name="b94" type="B" ub="1"/><var name="b95" type="B" ub="1"/><var name="b96" type="B" ub="1"/><var name="b97" type="B" ub="1"/><var name="b98" type="B" ub="1"/><var name="b99" type="B" ub="1"/><var name="b100" type="B" ub="1"/><var name="b101" type="B" ub="1"/><var name="b102" type="B" ub="1"/><var name="b103" type="B" ub="1"/><var name="b104" type="B" ub="1"/><var name="b105" type="B" ub="1"/><var name="b106" type="B" ub="1"/><var name="b107" type="B" ub="1"/><var name="b108" type="B" ub="1"/><var name="b109" type="B" ub="1"/><var name="b110" type="B" ub="1"/><var name="b111" type="B" ub="1"/><var name="b112" type="B" ub="1"/><var name="b113" type="B" ub="1"/><var name="b114" type="B" ub="1"/><var name="b115" type="B" ub="1"/><var name="b116" type="B" ub="1"/><var name="b117" type="B" ub="1"/><var name="b118" type="B" ub="1"/><var name="b119" type="B" ub="1"/><var name="b120" type="B" ub="1"/><var name="b121" type="B" ub="1"/><var name="b122" type="B" ub="1"/><var name="b123" type="B" ub="1"/><var name="b124" type="B" ub="1"/><var name="b125" type="B" ub="1"/><var name="b126" type="B" ub="1"/><var name="b127" type="B" ub="1"/><var name="b128" type="B" ub="1"/><var name="b129" type="B" ub="1"/><var name="b130" type="B" ub="1"/><var name="b131" type="B" ub="1"/><var name="b132" type="B" ub="1"/><var name="b133" type="B" ub="1"/><var name="b134" type="B" ub="1"/><var name="b135" type="B" ub="1"/><var name="b136" type="B" ub="1"/><var name="b137" type="B" ub="1"/><var name="b138" type="B" ub="1"/><var name="b139" type="B" ub="1"/><var name="b140" type="B" ub="1"/><var name="b141" type="B" ub="1"/><var name="b142" type="B" ub="1"/><var name="b143" type="B" ub="1"/><var name="b144" type="B" ub="1"/><var name="b145" type="B" ub="1"/><var name="b146" type="B" ub="1"/><var name="b147" type="B" ub="1"/><var name="b148" type="B" ub="1"/><var name="b149" type="B" ub="1"/><var name="b150" type="B" ub="1"/><var name="b151" type="B" ub="1"/><var name="b152" type="B" ub="1"/><var name="b153" type="B" ub="1"/><var name="b154" type="B" ub="1"/></variables><objectives><obj maxOrMin="min" name="defObj_objvar" numberOfObjCoef="0"/></objectives><constraints numberOfConstraints="214"><con name="e1" lb=".993251773010283"/><con name="e2" lb=".336472236621213"/><con name="e3" lb=".182321556793955"/><con name="e4" lb=".53062825106217"/><con name="e5" lb=".741937344729377"/><con name="e6" lb="1.09861228866811"/><con name="e7" lb=".587786664902119"/><con name="e8" lb=".8754687373539"/><con name="e9" lb=".587786664902119"/><con name="e10" lb="9.53101798043249e-2"/><con name="e11" lb=".741937344729377"/><con name="e12" lb=".78845736036427"/><con name="e13" lb="1.09861228866811"/><con name="e14" lb="1.1314021114911"/><con name="e15" lb=".8754687373539"/><con name="e16" lb="1.16315080980568"/><con name="e17" lb="1.16315080980568"/><con name="e18" lb="9.53101798043249e-2"/><con name="e19" lb=".182321556793955"/><con name="e20" lb="-.105360515657826"/><con name="e21" lb=".262364264467491"/><con name="e22" lb=".8754687373539"/><con name="e23" lb=".916290731874155"/><con name="e24" lb="-.105360515657826"/><con name="e25" lb="1.1314021114911"/><con name="e26" lb="1.38629436111989"/><con name="e27" lb="1.16315080980568"/><con name="e28" lb=".182321556793955"/><con name="e29" lb=".8754687373539"/><con name="e30" lb=".993251773010283"/><con name="e31" lb="1.06471073699243"/><con name="e32" lb="1.1314021114911"/><con name="e33" lb="1.09861228866811"/><con name="e34" lb=".693147180559945"/><con name="e35" lb=".693147180559945"/><con name="e36" lb="0"/><con name="e37" lb="1.38629436111989"/><con name="e38" lb="0"/><con name="e39" lb="1.09861228866811"/><con name="e40" lb=".693147180559945"/><con name="e41" lb=".693147180559945"/><con name="e42" lb="1.38629436111989"/><con name="e43" lb="0"/><con name="e44" lb="1.09861228866811"/><con name="e45" lb="1.6094379124341"/><con name="e46" lb=".693147180559945"/><con name="e47" lb="1.38629436111989"/><con name="e48" lb="1.79175946922805"/><con name="e49" lb="1.79175946922805"/><con name="e50" lb=".693147180559945"/><con name="e51" lb=".693147180559945"/><con name="e52" lb=".693147180559945"/><con name="e53" lb="1.09861228866811"/><con name="e54" lb="1.6094379124341"/><con name="e55" lb=".693147180559945"/><con name="e56" lb="1.38629436111989"/><con name="e57" lb=".693147180559945"/><con name="e58" lb="1.09861228866811"/><con name="e59" lb="1.79175946922805"/><con name="e60" lb="1.6094379124341"/><con name="e61" lb="1.38629436111989"/><con name="e62" lb=".693147180559945"/><con name="e63" lb=".693147180559945"/><con name="e64" lb="1.09861228866811"/><con name="e65" ub="6e3"/><con name="e66" lb="-8.61370563888011"/><con name="e67" lb="-8.61370563888011"/><con name="e68" lb="-8.61370563888011"/><con name="e69" lb="-8.61370563888011"/><con name="e70" lb="-8.61370563888011"/><con name="e71" lb="-8.61370563888011"/><con name="e72" lb="-8.61370563888011"/><con name="e73" lb="-8.61370563888011"/><con name="e74" lb="-8.61370563888011"/><con name="e75" lb="-8.61370563888011"/><con name="e76" lb="-8.61370563888011"/><con name="e77" lb="-8.61370563888011"/><con name="e78" lb="-8.61370563888011"/><con name="e79" lb="-8.61370563888011"/><con name="e80" lb="-8.61370563888011"/><con name="e81" lb="-8.61370563888011"/><con name="e82" lb="-8.61370563888011"/><con name="e83" lb="-8.61370563888011"/><con name="e84" lb="-8.61370563888011"/><con name="e85" lb="-8.61370563888011"/><con name="e86" lb="-8.61370563888011"/><con name="e87" lb="-8.61370563888011"/><con name="e88" lb="-8.61370563888011"/><con name="e89" lb="-8.61370563888011"/><con name="e90" lb="-8.61370563888011"/><con name="e91" lb="-8.61370563888011"/><con name="e92" lb="-8.61370563888011"/><con name="e93" lb="-8.61370563888011"/><con name="e94" lb="-8.61370563888011"/><con name="e95" lb="-8.61370563888011"/><con name="e96" lb="-8.61370563888011"/><con name="e97" lb="-8.61370563888011"/><con name="e98" lb="-8.61370563888011"/><con name="e99" lb="-8.61370563888011"/><con name="e100" lb="-8.61370563888011"/><con name="e101" lb="-8.61370563888011"/><con name="e102" lb="-8.61370563888011"/><con name="e103" lb="-8.61370563888011"/><con name="e104" lb="-8.61370563888011"/><con name="e105" lb="-8.61370563888011"/><con name="e106" lb="-8.61370563888011"/><con name="e107" lb="-8.61370563888011"/><con name="e108" lb="-8.61370563888011"/><con name="e109" lb="-8.61370563888011"/><con name="e110" lb="-8.61370563888011"/><con name="e111" lb="-8.61370563888011"/><con name="e112" lb="-8.61370563888011"/><con name="e113" lb="-8.61370563888011"/><con name="e114" lb="-8.61370563888011"/><con name="e115" lb="-8.61370563888011"/><con name="e116" lb="-8.61370563888011"/><con name="e117" lb="-8.61370563888011"/><con name="e118" lb="-8.61370563888011"/><con name="e119" lb="-8.61370563888011"/><con name="e120" lb="-8.61370563888011"/><con name="e121" lb="-8.61370563888011"/><con name="e122" lb="0" ub="0"/><con name="e123" lb="0" ub="0"/><con name="e124" lb="0" ub="0"/><con name="e125" lb="0" ub="0"/><con name="e126" lb="0" ub="0"/><con name="e127" lb="0" ub="0"/><con name="e128" lb="0" ub="0"/><con name="e129" lb="0" ub="0"/><con name="e130" lb="0" ub="0"/><con name="e131" lb="0" ub="0"/><con name="e132" lb="0" ub="0"/><con name="e133" lb="0" ub="0"/><con name="e134" lb="0" ub="0"/><con name="e135" lb="0" ub="0"/><con name="e136" lb="0" ub="0"/><con name="e137" lb="0" ub="0"/><con name="e138" lb="1" ub="1"/><con name="e139" lb="1" ub="1"/><con name="e140" lb="1" ub="1"/><con name="e141" lb="1" ub="1"/><con name="e142" lb="1" ub="1"/><con name="e143" lb="1" ub="1"/><con name="e144" lb="1" ub="1"/><con name="e145" lb="1" ub="1"/><con name="e146" lb="1" ub="1"/><con name="e147" lb="1" ub="1"/><con name="e148" lb="1" ub="1"/><con name="e149" lb="1" ub="1"/><con name="e150" lb="1" ub="1"/><con name="e151" lb="1" ub="1"/><con name="e152" lb="1" ub="1"/><con name="e153" lb="1" ub="1"/><con name="e154" ub="1"/><con name="e155" ub="1"/><con name="e156" ub="1"/><con name="e157" ub="1"/><con name="e158" lb="1"/><con name="e159" ub="0"/><con name="e160" ub="0"/><con name="e161" ub="0"/><con name="e162" ub="0"/><con name="e163" ub="0"/><con name="e164" ub="0"/><con name="e165" ub="0"/><con name="e166" ub="0"/><con name="e167" ub="0"/><con name="e168" ub="0"/><con name="e169" ub="0"/><con name="e170" ub="0"/><con name="e171" ub="0"/><con name="e172" ub="0"/><con name="e173" ub="0"/><con name="e174" ub="0"/><con name="e175" ub="0"/><con name="e176" ub="0"/><con name="e177" ub="0"/><con name="e178" ub="0"/><con name="e179" ub="0"/><con name="e180" ub="0"/><con name="e181" ub="0"/><con name="e182" ub="0"/><con name="e183" ub="0"/><con name="e184" ub="0"/><con name="e185" ub="0"/><con name="e186" ub="0"/><con name="e187" lb="0"/><con name="e188" lb="0"/><con name="e189" lb="0"/><con name="e190" lb="0"/><con name="e191" lb="0"/><con name="e192" lb="0"/><con name="e193" lb="0"/><con name="e194" lb="0"/><con name="e195" lb="0"/><con name="e196" lb="0"/><con name="e197" lb="0"/><con name="e198" lb="0"/><con name="e199" lb="0"/><con name="e200" lb="0"/><con name="e201" lb="0"/><con name="e202" lb="0"/><con name="e203" lb="0"/><con name="e204" lb="0"/><con name="e205" lb="0"/><con name="e206" lb="0"/><con name="e207" lb="0"/><con name="e208" lb="0"/><con name="e209" lb="0"/><con name="e210" lb="0"/><con name="e211" lb="0"/><con name="e212" lb="0"/><con name="e213" lb="0"/><con name="e214" lb="0"/></constraints><linearConstraintCoefficients numberOfValues="712"><start><el mult="65" incr="3">0</el><el mult="57" incr="3">192</el><el mult="32" incr="4">364</el><el mult="4" incr="7">495</el><el mult="57" incr="3">544</el></start><colIdx><el>0</el><el>8</el><el>40</el><el>1</el><el>9</el><el>41</el><el>2</el><el>10</el><el>42</el><el>3</el><el>11</el><el>43</el><el>4</el><el>12</el><el>44</el><el>5</el><el>13</el><el>45</el><el>6</el><el>14</el><el>46</el><el>7</el><el>15</el><el>47</el><el>0</el><el>16</el><el>40</el><el>1</el><el>17</el><el>41</el><el>2</el><el>18</el><el>42</el><el>3</el><el>19</el><el>43</el><el>4</el><el>20</el><el>44</el><el>5</el><el>21</el><el>45</el><el>6</el><el>22</el><el>46</el><el>7</el><el>23</el><el>47</el><el>0</el><el>24</el><el>40</el><el>1</el><el>25</el><el>41</el><el>2</el><el>26</el><el>42</el><el>3</el><el>27</el><el>43</el><el>4</el><el>28</el><el>44</el><el>5</el><el>29</el><el>45</el><el>6</el><el>30</el><el>46</el><el>7</el><el>31</el><el>47</el><el>0</el><el>32</el><el>40</el><el>1</el><el>33</el><el>41</el><el>2</el><el>34</el><el>42</el><el>3</el><el>35</el><el>43</el><el>4</el><el>36</el><el>44</el><el>5</el><el>37</el><el>45</el><el>6</el><el>38</el><el>46</el><el>7</el><el>39</el><el>47</el><el>8</el><el>48</el><el>57</el><el>9</el><el>49</el><el>57</el><el>10</el><el>50</el><el>57</el><el>11</el><el>51</el><el>57</el><el>12</el><el>52</el><el>57</el><el>13</el><el>53</el><el>57</el><el>14</el><el>54</el><el>57</el><el>15</el><el>55</el><el>57</el><el>16</el><el>48</el><el>58</el><el>17</el><el>49</el><el>58</el><el>18</el><el>50</el><el>58</el><el>19</el><el>51</el><el>58</el><el>20</el><el>52</el><el>58</el><el>21</el><el>53</el><el>58</el><el>22</el><el>54</el><el>58</el><el>23</el><el>55</el><el>58</el><el>24</el><el>48</el><el>59</el><el>25</el><el>49</el><el>59</el><el>26</el><el>50</el><el>59</el><el>27</el><el>51</el><el>59</el><el>28</el><el>52</el><el>59</el><el>29</el><el>53</el><el>59</el><el>30</el><el>54</el><el>59</el><el>31</el><el>55</el><el>59</el><el>32</el><el>48</el><el>60</el><el>33</el><el>49</el><el>60</el><el>34</el><el>50</el><el>60</el><el>35</el><el>51</el><el>60</el><el>36</el><el>52</el><el>60</el><el>37</el><el>53</el><el>60</el><el>38</el><el>54</el><el>60</el><el>39</el><el>55</el><el>60</el><el>9</el><el>56</el><el>125</el><el>10</el><el>56</el><el>126</el><el>11</el><el>56</el><el>127</el><el>12</el><el>56</el><el>128</el><el>13</el><el>56</el><el>129</el><el>14</el><el>56</el><el>130</el><el>15</el><el>56</el><el>131</el><el>17</el><el>56</el><el>132</el><el>18</el><el>56</el><el>133</el><el>19</el><el>56</el><el>134</el><el>20</el><el>56</el><el>135</el><el>21</el><el>56</el><el>136</el><el>22</el><el>56</el><el>137</el><el>23</el><el>56</el><el>138</el><el>25</el><el>56</el><el>139</el><el>26</el><el>56</el><el>140</el><el>27</el><el>56</el><el>141</el><el>28</el><el>56</el><el>142</el><el>29</el><el>56</el><el>143</el><el>30</el><el>56</el><el>144</el><el>31</el><el>56</el><el>145</el><el>33</el><el>56</el><el>146</el><el>34</el><el>56</el><el>147</el><el>35</el><el>56</el><el>148</el><el>36</el><el>56</el><el>149</el><el>37</el><el>56</el><el>150</el><el>38</el><el>56</el><el>151</el><el>39</el><el>56</el><el>152</el><el>8</el><el>56</el><el>125</el><el>9</el><el>56</el><el>126</el><el>10</el><el>56</el><el>127</el><el>11</el><el>56</el><el>128</el><el>12</el><el>56</el><el>129</el><el>13</el><el>56</el><el>130</el><el>14</el><el>56</el><el>131</el><el>16</el><el>56</el><el>132</el><el>17</el><el>56</el><el>133</el><el>18</el><el>56</el><el>134</el><el>19</el><el>56</el><el>135</el><el>20</el><el>56</el><el>136</el><el>21</el><el>56</el><el>137</el><el>22</el><el>56</el><el>138</el><el>24</el><el>56</el><el>139</el><el>25</el><el>56</el><el>140</el><el>26</el><el>56</el><el>141</el><el>27</el><el>56</el><el>142</el><el>28</el><el>56</el><el>143</el><el>29</el><el>56</el><el>144</el><el>30</el><el>56</el><el>145</el><el>32</el><el>56</el><el>146</el><el>33</el><el>56</el><el>147</el><el>34</el><el>56</el><el>148</el><el>35</el><el>56</el><el>149</el><el>36</el><el>56</el><el>150</el><el>37</el><el>56</el><el>151</el><el>38</el><el>56</el><el>152</el><el>40</el><el mult="3" incr="8">69</el><el>41</el><el mult="3" incr="8">70</el><el>42</el><el mult="3" incr="8">71</el><el>43</el><el mult="3" incr="8">72</el><el>44</el><el mult="3" incr="8">73</el><el>45</el><el mult="3" incr="8">74</el><el>46</el><el mult="3" incr="8">75</el><el>47</el><el mult="3" incr="8">76</el><el>48</el><el mult="3" incr="8">101</el><el>49</el><el mult="3" incr="8">102</el><el>50</el><el mult="3" incr="8">103</el><el>51</el><el mult="3" incr="8">104</el><el>52</el><el mult="3" incr="8">105</el><el>53</el><el mult="3" incr="8">106</el><el>54</el><el mult="3" incr="8">107</el><el>55</el><el mult="3" incr="8">108</el><el mult="4" incr="8">61</el><el mult="4" incr="8">62</el><el mult="4" incr="8">63</el><el mult="4" incr="8">64</el><el mult="4" incr="8">65</el><el mult="4" incr="8">66</el><el mult="4" incr="8">67</el><el mult="4" incr="8">68</el><el mult="4" incr="8">93</el><el mult="4" incr="8">94</el><el mult="4" incr="8">95</el><el mult="4" incr="8">96</el><el mult="4" incr="8">97</el><el mult="4" incr="8">98</el><el mult="4" incr="8">99</el><el mult="4" incr="8">100</el><el mult="28" incr="1">125</el><el mult="28" incr="1">125</el><el>8</el><el>9</el><el>125</el><el>9</el><el>10</el><el>126</el><el>10</el><el>11</el><el>127</el><el>11</el><el>12</el><el>128</el><el>12</el><el>13</el><el>129</el><el>13</el><el>14</el><el>130</el><el>14</el><el>15</el><el>131</el><el>16</el><el>17</el><el>132</el><el>17</el><el>18</el><el>133</el><el>18</el><el>19</el><el>134</el><el>19</el><el>20</el><el>135</el><el>20</el><el>21</el><el>136</el><el>21</el><el>22</el><el>137</el><el>22</el><el>23</el><el>138</el><el>24</el><el>25</el><el>139</el><el>25</el><el>26</el><el>140</el><el>26</el><el>27</el><el>141</el><el>27</el><el>28</el><el>142</el><el>28</el><el>29</el><el>143</el><el>29</el><el>30</el><el>144</el><el>30</el><el>31</el><el>145</el><el>32</el><el>33</el><el>146</el><el>33</el><el>34</el><el>147</el><el>34</el><el>35</el><el>148</el><el>35</el><el>36</el><el>149</el><el>36</el><el>37</el><el>150</el><el>37</el><el>38</el><el>151</el><el>38</el><el>39</el><el>152</el><el>8</el><el>9</el><el>125</el><el>9</el><el>10</el><el>126</el><el>10</el><el>11</el><el>127</el><el>11</el><el>12</el><el>128</el><el>12</el><el>13</el><el>129</el><el>13</el><el>14</el><el>130</el><el>14</el><el>15</el><el>131</el><el>16</el><el>17</el><el>132</el><el>17</el><el>18</el><el>133</el><el>18</el><el>19</el><el>134</el><el>19</el><el>20</el><el>135</el><el>20</el><el>21</el><el>136</el><el>21</el><el>22</el><el>137</el><el>22</el><el>23</el><el>138</el><el>24</el><el>25</el><el>139</el><el>25</el><el>26</el><el>140</el><el>26</el><el>27</el><el>141</el><el>27</el><el>28</el><el>142</el><el>28</el><el>29</el><el>143</el><el>29</el><el>30</el><el>144</el><el>30</el><el>31</el><el>145</el><el>32</el><el>33</el><el>146</el><el>33</el><el>34</el><el>147</el><el>34</el><el>35</el><el>148</el><el>35</el><el>36</el><el>149</el><el>36</el><el>37</el><el>150</el><el>37</el><el>38</el><el>151</el><el>38</el><el>39</el><el>152</el></colIdx><value><el>1</el><el>-1</el><el mult="2">1</el><el>-1</el><el mult="2">1</el><el>-1</el><el mult="2">1</el><el>-1</el><el mult="2">1</el><el>-1</el><el mult="2">1</el><el>-1</el><el mult="2">1</el><el>-1</el><el mult="2">1</el><el>-1</el><el mult="2">1</el><el>-1</el><el mult="2">1</el><el>-1</el><el mult="2">1</el><el>-1</el><el mult="2">1</el><el>-1</el><el mult="2">1</el><el>-1</el><el mult="2">1</el><el>-1</el><el mult="2">1</el><el>-1</el><el mult="2">1</el><el>-1</el><el mult="2">1</el><el>-1</el><el mult="2">1</el><el>-1</el><el mult="2">1</el><el>-1</el><el mult="2">1</el><el>-1</el><el mult="2">1</el><el>-1</el><el mult="2">1</el><el>-1</el><el mult="2">1</el><el>-1</el><el mult="2">1</el><el>-1</el><el mult="2">1</el><el>-1</el><el mult="2">1</el><el>-1</el><el mult="2">1</el><el>-1</el><el mult="2">1</el><el>-1</el><el mult="2">1</el><el>-1</el><el mult="2">1</el><el>-1</el><el mult="2">1</el><el>-1</el><el mult="2">1</el><el>-1</el><el mult="97">1</el><el>-1</el><el>1</el><el>-10</el><el>-1</el><el>1</el><el>-10</el><el>-1</el><el>1</el><el>-10</el><el>-1</el><el>1</el><el>-10</el><el>-1</el><el>1</el><el>-10</el><el>-1</el><el>1</el><el>-10</el><el>-1</el><el>1</el><el>-10</el><el>-1</el><el>1</el><el>-10</el><el>-1</el><el>1</el><el>-10</el><el>-1</el><el>1</el><el>-10</el><el>-1</el><el>1</el><el>-10</el><el>-1</el><el>1</el><el>-10</el><el>-1</el><el>1</el><el>-10</el><el>-1</el><el>1</el><el>-10</el><el>-1</el><el>1</el><el>-10</el><el>-1</el><el>1</el><el>-10</el><el>-1</el><el>1</el><el>-10</el><el>-1</el><el>1</el><el>-10</el><el>-1</el><el>1</el><el>-10</el><el>-1</el><el>1</el><el>-10</el><el>-1</el><el>1</el><el>-10</el><el>-1</el><el>1</el><el>-10</el><el>-1</el><el>1</el><el>-10</el><el>-1</el><el>1</el><el>-10</el><el>-1</el><el>1</el><el>-10</el><el>-1</el><el>1</el><el>-10</el><el>-1</el><el>1</el><el>-10</el><el>-1</el><el>1</el><el>-10</el><el>-1</el><el>1</el><el>-10</el><el>-1</el><el>1</el><el>-10</el><el>-1</el><el>1</el><el>-10</el><el>-1</el><el>1</el><el>-10</el><el>-1</el><el>1</el><el>-10</el><el>-1</el><el>1</el><el>-10</el><el>-1</el><el>1</el><el>-10</el><el>-1</el><el>1</el><el>-10</el><el>-1</el><el>1</el><el>-10</el><el>-1</el><el>1</el><el>-10</el><el>-1</el><el>1</el><el>-10</el><el>-1</el><el>1</el><el>-10</el><el>-1</el><el>1</el><el>-10</el><el>-1</el><el>1</el><el>-10</el><el>-1</el><el>1</el><el>-10</el><el>-1</el><el>1</el><el>-10</el><el>-1</el><el>1</el><el>-10</el><el>-1</el><el>1</el><el>-10</el><el>-1</el><el>1</el><el>-10</el><el>-1</el><el>1</el><el>-10</el><el>-1</el><el>1</el><el>-10</el><el>-1</el><el>1</el><el>-10</el><el>-1</el><el>1</el><el>-10</el><el>-1</el><el>1</el><el>-10</el><el>-1</el><el>1</el><el>-10</el><el>-1</el><el>1</el><el>-10</el><el>-1</el><el>1</el><el>-10</el><el>-1</el><el>1</el><el>-10</el><el>1</el><el>-.693147180559945</el><el>-1.09861228866811</el><el>-1.38629436111989</el><el>1</el><el>-.693147180559945</el><el>-1.09861228866811</el><el>-1.38629436111989</el><el>1</el><el>-.693147180559945</el><el>-1.09861228866811</el><el>-1.38629436111989</el><el>1</el><el>-.693147180559945</el><el>-1.09861228866811</el><el>-1.38629436111989</el><el>1</el><el>-.693147180559945</el><el>-1.09861228866811</el><el>-1.38629436111989</el><el>1</el><el>-.693147180559945</el><el>-1.09861228866811</el><el>-1.38629436111989</el><el>1</el><el>-.693147180559945</el><el>-1.09861228866811</el><el>-1.38629436111989</el><el>1</el><el>-.693147180559945</el><el>-1.09861228866811</el><el>-1.38629436111989</el><el>1</el><el>-.693147180559945</el><el>-1.09861228866811</el><el>-1.38629436111989</el><el>1</el><el>-.693147180559945</el><el>-1.09861228866811</el><el>-1.38629436111989</el><el>1</el><el>-.693147180559945</el><el>-1.09861228866811</el><el>-1.38629436111989</el><el>1</el><el>-.693147180559945</el><el>-1.09861228866811</el><el>-1.38629436111989</el><el>1</el><el>-.693147180559945</el><el>-1.09861228866811</el><el>-1.38629436111989</el><el>1</el><el>-.693147180559945</el><el>-1.09861228866811</el><el>-1.38629436111989</el><el>1</el><el>-.693147180559945</el><el>-1.09861228866811</el><el>-1.38629436111989</el><el>1</el><el>-.693147180559945</el><el>-1.09861228866811</el><el>-1.38629436111989</el><el mult="121">1</el><el>-1</el><el>-.693147180559945</el><el>1</el><el>-1</el><el>-.693147180559945</el><el>1</el><el>-1</el><el>-.693147180559945</el><el>1</el><el>-1</el><el>-.693147180559945</el><el>1</el><el>-1</el><el>-.693147180559945</el><el>1</el><el>-1</el><el>-.693147180559945</el><el>1</el><el>-1</el><el>-.693147180559945</el><el>1</el><el>-1</el><el>-.693147180559945</el><el>1</el><el>-1</el><el>-.693147180559945</el><el>1</el><el>-1</el><el>-.693147180559945</el><el>1</el><el>-1</el><el>-.693147180559945</el><el>1</el><el>-1</el><el>-.693147180559945</el><el>1</el><el>-1</el><el>-.693147180559945</el><el>1</el><el>-1</el><el>-.693147180559945</el><el>1</el><el>-1</el><el>-.693147180559945</el><el>1</el><el>-1</el><el>-.693147180559945</el><el>1</el><el>-1</el><el>-.693147180559945</el><el>1</el><el>-1</el><el>-.693147180559945</el><el>1</el><el>-1</el><el>-.693147180559945</el><el>1</el><el>-1</el><el>-.693147180559945</el><el>1</el><el>-1</el><el>-.693147180559945</el><el>1</el><el>-1</el><el>-.693147180559945</el><el>1</el><el>-1</el><el>-.693147180559945</el><el>1</el><el>-1</el><el>-.693147180559945</el><el>1</el><el>-1</el><el>-.693147180559945</el><el>1</el><el>-1</el><el>-.693147180559945</el><el>1</el><el>-1</el><el>-.693147180559945</el><el>1</el><el>-1</el><el>-.693147180559945</el><el>1</el><el>-1</el><el>.693147180559945</el><el>1</el><el>-1</el><el>.693147180559945</el><el>1</el><el>-1</el><el>.693147180559945</el><el>1</el><el>-1</el><el>.693147180559945</el><el>1</el><el>-1</el><el>.693147180559945</el><el>1</el><el>-1</el><el>.693147180559945</el><el>1</el><el>-1</el><el>.693147180559945</el><el>1</el><el>-1</el><el>.693147180559945</el><el>1</el><el>-1</el><el>.693147180559945</el><el>1</el><el>-1</el><el>.693147180559945</el><el>1</el><el>-1</el><el>.693147180559945</el><el>1</el><el>-1</el><el>.693147180559945</el><el>1</el><el>-1</el><el>.693147180559945</el><el>1</el><el>-1</el><el>.693147180559945</el><el>1</el><el>-1</el><el>.693147180559945</el><el>1</el><el>-1</el><el>.693147180559945</el><el>1</el><el>-1</el><el>.693147180559945</el><el>1</el><el>-1</el><el>.693147180559945</el><el>1</el><el>-1</el><el>.693147180559945</el><el>1</el><el>-1</el><el>.693147180559945</el><el>1</el><el>-1</el><el>.693147180559945</el><el>1</el><el>-1</el><el>.693147180559945</el><el>1</el><el>-1</el><el>.693147180559945</el><el>1</el><el>-1</el><el>.693147180559945</el><el>1</el><el>-1</el><el>.693147180559945</el><el>1</el><el>-1</el><el>.693147180559945</el><el>1</el><el>-1</el><el>.693147180559945</el><el>1</el><el>-1</el><el>.693147180559945</el></value></linearConstraintCoefficients><nonlinearExpressions numberOfNonlinearExpressions="2"><nl idx="-1"><sum><product><exp><sum><variable idx="0" coef=".65"/><variable idx="40"/><variable idx="48"/></sum></exp><number value="592"/></product><product><exp><sum><variable idx="1" coef=".59"/><variable idx="41"/><variable idx="49"/></sum></exp><number value="582"/></product><product><exp><sum><variable idx="2" coef=".52"/><variable idx="42"/><variable idx="50"/></sum></exp><number value="1.2e3"/></product><product><exp><sum><variable idx="3" coef=".7"/><variable idx="43"/><variable idx="51"/></sum></exp><number value="200"/></product><product><exp><sum><variable idx="4" coef=".39"/><variable idx="44"/><variable idx="52"/></sum></exp><number value="582"/></product><product><exp><sum><variable idx="5" coef=".8"/><variable idx="45"/><variable idx="53"/></sum></exp><number value="8.5e2"/></product><product><exp><sum><variable idx="6" coef=".65"/><variable idx="46"/><variable idx="54"/></sum></exp><number value="592"/></product><product><exp><sum><variable idx="7" coef=".52"/><variable idx="47"/><variable idx="55"/></sum></exp><number value="1.2e3"/></product><product><exp><variable idx="56" coef=".5"/></exp><number value="1.5e2"/></product></sum></nl><nl idx="64"><sum><product><exp><variable idx="57"/></exp><number value="3e4"/></product><product><exp><variable idx="58"/></exp><number value="2e4"/></product><product><exp><variable idx="59"/></exp><number value="4e4"/></product><product><exp><variable idx="60"/></exp><number value="2e4"/></product></sum></nl></nonlinearExpressions></instanceData></osil>